NAME: tsp_82
COMMENT: Random TSP instance
TYPE: TSP
DIMENSION: 50
EDGE_WEIGHT_TYPE: EUC_2D
NODE_COORD_SECTION
1 842 651
2 577 513
3 65 174
4 8 331
5 677 153
6 769 951
7 240 639
8 849 311
9 431 318
10 376 420
11 36 143
12 226 892
13 433 362
14 913 319
15 493 908
16 617 115
17 330 571
18 989 942
19 551 761
20 883 457
21 152 106
22 400 957
23 910 397
24 667 309
25 249 89
26 579 424
27 163 811
28 978 835
29 391 237
30 90 157
31 885 654
32 274 259
33 495 597
34 73 347
35 633 145
36 917 893
37 356 355
38 183 76
39 701 497
40 724 772
41 886 137
42 406 768
43 148 369
44 63 652
45 321 925
46 936 956
47 164 381
48 344 747
49 380 667
50 336 922
